solution status: optimal solution found
objective value:                                  208
X$P0#1#9                                            1 	(obj:1)
X$P1#1#9                                            1 	(obj:1)
X$P2#1#9                                            1 	(obj:1)
X$P3#1#9                                            1 	(obj:1)
X$P4#1#9                                            1 	(obj:1)
X$P5#1#9                                            1 	(obj:1)
X$P6#1#9                                            1 	(obj:1)
X$P7#1#12                                           1 	(obj:1)
X$P8#1#12                                           1 	(obj:1)
X$P9#2#9                                            1 	(obj:1)
X$P10#1#9                                           1 	(obj:1)
X$P11#1#9                                           1 	(obj:1)
X$P12#1#12                                          1 	(obj:1)
X$P13#2#9                                           1 	(obj:1)
X$P14#1#9                                           1 	(obj:1)
X$P15#2#12                                          1 	(obj:1)
X$P16#1#12                                          1 	(obj:1)
X$P17#1#9                                           1 	(obj:1)
X$P18#3#9                                           1 	(obj:1)
X$P19#2#12                                          1 	(obj:1)
X$P20#1#12                                          1 	(obj:1)
X$P21#1#9                                           1 	(obj:1)
X$P22#1#15                                          1 	(obj:1)
X$P23#1#12                                          1 	(obj:1)
X$P24#2#12                                          1 	(obj:1)
X$P25#1#12                                          1 	(obj:1)
X$P26#1#12                                          1 	(obj:1)
X$P27#1#12                                          1 	(obj:1)
X$P28#1#9                                           1 	(obj:1)
X$P29#1#9                                           1 	(obj:1)
X$P30#1#12                                          1 	(obj:1)
X$P31#2#9                                           1 	(obj:1)
X$P32#1#12                                          1 	(obj:1)
X$P33#3#9                                           1 	(obj:1)
X$P34#2#12                                          1 	(obj:1)
X$P35#3#9                                           1 	(obj:1)
X$P36#1#9                                           1 	(obj:1)
X$P37#2#9                                           1 	(obj:1)
X$P38#3#12                                          1 	(obj:1)
X$P39#2#9                                           1 	(obj:1)
X$P40#1#12                                          1 	(obj:1)
X$P41#2#9                                           1 	(obj:1)
X$P42#1#18                                          1 	(obj:1)
X$P43#3#9                                           1 	(obj:1)
X$P44#2#12                                          1 	(obj:1)
X$P45#1#12                                          1 	(obj:1)
X$P46#1#12                                          1 	(obj:1)
X$P47#3#12                                          1 	(obj:1)
X$P48#3#12                                          1 	(obj:1)
X$P49#1#12                                          1 	(obj:1)
X$P50#3#9                                           1 	(obj:1)
X$P51#4#9                                           1 	(obj:1)
X$P52#2#12                                          1 	(obj:1)
X$P53#2#9                                           1 	(obj:1)
X$P54#1#9                                           1 	(obj:1)
X$P55#2#9                                           1 	(obj:1)
X$P56#2#9                                           1 	(obj:1)
X$P57#1#12                                          1 	(obj:1)
X$P58#1#12                                          1 	(obj:1)
X$P59#1#9                                           1 	(obj:1)
X$P60#3#9                                           1 	(obj:1)
X$P61#2#12                                          1 	(obj:1)
X$P62#2#9                                           1 	(obj:1)
X$P63#2#9                                           1 	(obj:1)
X$P64#4#12                                          1 	(obj:1)
X$P65#4#9                                           1 	(obj:1)
X$P66#2#12                                          1 	(obj:1)
X$P67#5#9                                           1 	(obj:1)
X$P68#1#12                                          1 	(obj:1)
X$P69#2#9                                           1 	(obj:1)
X$P70#2#12                                          1 	(obj:1)
X$P71#4#12                                          1 	(obj:1)
X$P72#3#12                                          1 	(obj:1)
X$P73#2#12                                          1 	(obj:1)
X$P74#2#12                                          1 	(obj:1)
X$P75#3#9                                           1 	(obj:1)
X$P76#1#9                                           1 	(obj:1)
X$P77#2#12                                          1 	(obj:1)
X$P78#2#12                                          1 	(obj:1)
X$P79#1#9                                           1 	(obj:1)
X$P80#3#12                                          1 	(obj:1)
X$P81#3#9                                           1 	(obj:1)
X$P82#4#12                                          1 	(obj:1)
X$P83#1#18                                          1 	(obj:1)
X$P84#3#12                                          1 	(obj:1)
X$P85#1#12                                          1 	(obj:1)
X$P86#3#12                                          1 	(obj:1)
X$P87#1#9                                           1 	(obj:1)
X$P88#2#9                                           1 	(obj:1)
X$P89#1#12                                          1 	(obj:1)
X$P90#3#9                                           1 	(obj:1)
X$P91#2#9                                           1 	(obj:1)
X$P92#3#12                                          1 	(obj:1)
X$P93#5#12                                          1 	(obj:1)
X$P94#9#9                                           1 	(obj:1)
X$P95#3#12                                          1 	(obj:1)
X$P96#9#12                                          1 	(obj:1)
X$P97#1#9                                           1 	(obj:1)
X$P98#5#12                                          1 	(obj:1)
X$P99#1#9                                           1 	(obj:1)
X$P100#1#12                                         1 	(obj:1)
X$P101#3#12                                         1 	(obj:1)
X$P102#3#12                                         1 	(obj:1)
X$P103#2#12                                         1 	(obj:1)
X$P104#4#9                                          1 	(obj:1)
X$P105#1#9                                          1 	(obj:1)
X$P106#3#12                                         1 	(obj:1)
X$P107#1#9                                          1 	(obj:1)
X$P108#1#9                                          1 	(obj:1)
X$P109#3#9                                          1 	(obj:1)
X$P110#1#15                                         1 	(obj:1)
X$P111#5#9                                          1 	(obj:1)
X$P112#4#12                                         1 	(obj:1)
X$P113#2#12                                         1 	(obj:1)
X$P114#3#12                                         1 	(obj:1)
X$P115#1#9                                          1 	(obj:1)
X$P116#9#9                                          1 	(obj:1)
X$P117#10#9                                         1 	(obj:1)
X$P118#4#12                                         1 	(obj:1)
X$P119#4#9                                          1 	(obj:1)
X$P120#5#9                                          1 	(obj:1)
X$P121#10#12                                        1 	(obj:1)
X$P122#9#12                                         1 	(obj:1)
X$P123#11#9                                         1 	(obj:1)
X$P124#11#12                                        1 	(obj:1)
X$P125#3#9                                          1 	(obj:1)
X$P126#4#9                                          1 	(obj:1)
X$P127#10#9                                         1 	(obj:1)
X$P128#2#12                                         1 	(obj:1)
X$P129#2#9                                          1 	(obj:1)
X$P130#4#12                                         1 	(obj:1)
X$P131#9#12                                         1 	(obj:1)
X$P132#4#9                                          1 	(obj:1)
X$P133#3#12                                         1 	(obj:1)
X$P134#4#9                                          1 	(obj:1)
X$P135#5#9                                          1 	(obj:1)
X$P136#2#9                                          1 	(obj:1)
X$P137#4#12                                         1 	(obj:1)
X$P138#1#12                                         1 	(obj:1)
X$P139#1#9                                          1 	(obj:1)
X$P140#10#9                                         1 	(obj:1)
X$P141#2#9                                          1 	(obj:1)
X$P142#4#12                                         1 	(obj:1)
X$P143#3#9                                          1 	(obj:1)
X$P144#2#12                                         1 	(obj:1)
X$P145#11#12                                        1 	(obj:1)
X$P146#5#9                                          1 	(obj:1)
X$P147#5#9                                          1 	(obj:1)
X$P148#5#12                                         1 	(obj:1)
X$P149#10#12                                        1 	(obj:1)
X$P150#3#9                                          1 	(obj:1)
X$P151#5#9                                          1 	(obj:1)
X$P152#1#12                                         1 	(obj:1)
X$P153#9#12                                         1 	(obj:1)
X$P154#5#12                                         1 	(obj:1)
X$P155#4#9                                          1 	(obj:1)
X$P156#1#15                                         1 	(obj:1)
X$P157#2#12                                         1 	(obj:1)
X$P158#9#9                                          1 	(obj:1)
X$P159#5#9                                          1 	(obj:1)
X$P160#10#12                                        1 	(obj:1)
X$P161#1#9                                          1 	(obj:1)
X$P162#10#9                                         1 	(obj:1)
X$P163#1#15                                         1 	(obj:1)
X$P164#4#9                                          1 	(obj:1)
X$P165#5#12                                         1 	(obj:1)
X$P166#10#9                                         1 	(obj:1)
X$P167#4#9                                          1 	(obj:1)
X$P168#4#9                                          1 	(obj:1)
X$P169#4#12                                         1 	(obj:1)
X$P170#1#15                                         1 	(obj:1)
X$P171#4#12                                         1 	(obj:1)
X$P172#2#12                                         1 	(obj:1)
X$P173#5#12                                         1 	(obj:1)
X$P174#3#12                                         1 	(obj:1)
X$P175#2#12                                         1 	(obj:1)
X$P176#4#15                                         1 	(obj:1)
X$P177#2#9                                          1 	(obj:1)
X$P178#9#12                                         1 	(obj:1)
X$P179#10#12                                        1 	(obj:1)
X$P180#5#9                                          1 	(obj:1)
X$P181#9#12                                         1 	(obj:1)
X$P182#1#15                                         1 	(obj:1)
X$P183#11#12                                        1 	(obj:1)
X$P184#9#9                                          1 	(obj:1)
X$P185#3#15                                         1 	(obj:1)
X$P186#12#9                                         1 	(obj:1)
X$P187#2#15                                         1 	(obj:1)
X$P188#2#15                                         1 	(obj:1)
X$P189#2#15                                         1 	(obj:1)
X$P190#2#15                                         1 	(obj:1)
X$P191#2#15                                         1 	(obj:1)
X$P192#3#9                                          1 	(obj:1)
X$P193#4#12                                         1 	(obj:1)
X$P194#5#9                                          1 	(obj:1)
X$P195#4#9                                          1 	(obj:1)
X$P196#4#9                                          1 	(obj:1)
X$P197#5#12                                         1 	(obj:1)
X$P198#5#15                                         1 	(obj:1)
X$P199#4#12                                         1 	(obj:1)
X$P200#5#9                                          1 	(obj:1)
X$P201#4#15                                         1 	(obj:1)
X$P202#2#9                                          1 	(obj:1)
X$P203#5#9                                          1 	(obj:1)
X$P204#2#12                                         1 	(obj:1)
X$P205#9#9                                          1 	(obj:1)
X$P206#2#15                                         1 	(obj:1)
X$P207#5#12                                         1 	(obj:1)
